###############################################################################
# Sasaki, S.;Prewitt, C.T.;Bass, J.D. (1987)
# Acta Crystallographica C (39,1983-) 43, 1668-1674
# Orthorhombic perovskite Ca Ti O3 and Cd Ti O3: structure and space group
# 
# CIF by ICSD-for-WWW,  Copyright 2003 FIZ-Karlsruhe & A.W.Hewat (hewat@ill.fr)
# NOT TO BE PUBLISHED IN ANY FORM. See http://icsd.ill.fr/icsd/conditions.html
###############################################################################

data_62149-ICSD
_database_code_ICSD                62149
_audit_creation_date               1988-02-22
_chemical_name_systematic
'Calcium titanate'
_chemical_formula_structural       
'Ca (Ti O3)'
_chemical_formula_sum              
'Ca1 O3 Ti1'
_publ_section_title                
'Ca1 O3 Ti1'
loop_
_citation_id
_citation_journal_abbrev
_citation_year
_citation_journal_volume
_citation_page_first
_citation_page_last
_citation_journal_id_ASTM
primary 'Acta Crystallographica C (39,1983-)' 1987 43 1668 1674 ACSCEE
loop_
_publ_author_name
Sasaki, S.;Prewitt, C.T.;Bass, J.D.
_cell_length_a                     5.3796(1)
_cell_length_b                     5.4423(3)
_cell_length_c                     7.6401(5)
_cell_angle_alpha                  90.
_cell_angle_beta                   90.
_cell_angle_gamma                  90.
_cell_volume                       223.6809
_cell_formula_units_Z              4
_symmetry_space_group_name_H-M     'P b n m'
_symmetry_Int_Tables_number        62
_refine_ls_R_factor_all            0.0235
loop_
_symmetry_equiv_pos_site_id
_symmetry_equiv_pos_as_xyz
   1   '-x+1/2, y+1/2, z'
   2   'x, y, -z+1/2'
   3   'x+1/2, -y+1/2, z+1/2'
   4   '-x, -y, -z'
   5   'x+1/2, -y+1/2, -z'
   6   '-x, -y, z+1/2'
   7   '-x+1/2, y+1/2, -z+1/2'
   8   'x, y, z'
loop_
_atom_type_symbol
_atom_type_oxidation_number
Ca2+     2.
Ti4+     4.
O2-     -2.
 loop_
_atom_site_label
_atom_site_type_symbol
_atom_site_symmetry_multiplicity
_atom_site_Wyckoff_symbol
_atom_site_fract_x
_atom_site_fract_y
_atom_site_fract_z
_atom_site_B_iso_or_equiv
_atom_site_occupancy
Ca1 Ca2+ 4 c -.00676(7) 0.03602(6) 0.25 0. 1.
Ti1 Ti4+ 4 b 0 0.5 0 0. 1.
O1 O2- 4 c 0.0714(3) 0.4838(2) 0.25 0. 1.
O2 O2- 8 d 0.7108(2) 0.2888(2) 0.0371(2) 0. 1.
loop_
_atom_site_aniso_label
_atom_site_aniso_type_symbol
_atom_site_aniso_U_11
_atom_site_aniso_U_22
_atom_site_aniso_U_33
_atom_site_aniso_U_12
_atom_site_aniso_U_13
_atom_site_aniso_U_23
Ca1 Ca2+ 0.0077(1) 0.0079(1) 0.0077(1) -.0013(1) 0 0
Ti1 Ti4+ 0.0052(1) 0.0049(1) 0.0049(1) 0.00016(9) 0.00001(8) 0.00021(6)
O1 O2- 0.0080(5) 0.0084(5) 0.0037(4) 0.0001(4) 0 0
O2 O2- 0.0062(3) 0.0050(3) 0.0078(3) -.0024(2) 0.0009(2) -.0006(2)
#End of data_62149-ICSD

